max: 15 x1 - 4 x2 - 5  x3 - 5 x4 - x5 + 14 x6 - 4 x8 - 4 x9 + 2 x10 - 3 x11 - 3 x12  + 13 x13 - 3 x14 - 3  x15 - 3 x16 + 17 x17 - 3 x18 - 2 x19 - 2 x20 - 2 x21 - 2 x22  + 10 x23 + 12 x24 + 13 x25 + 38  x26 - 2 x27 - 2 x28 - x29 - x30 - x31 - x32 - x33 - x34 + 9 x35 + 7 x36 - x37 - x38 - x39 - x40;

x1 <= x5;      
x1 <= x6;     
x1 <= x7;     

x2 <= x6;     
x2 <= x7;       
x2 <= x8;   

x3 <= x7;
x3 <= x8;
x3 <= x9;

x4 <= x8;
x4 <= x9;
x4 <= x10;

x5 <= x11;
x5 <= x12;
x5 <= x13;

x6 <= x12;
x6 <= x13;
x6 <= x14;

x7 <= x13;
x7 <= x14;
x7 <= x15;

x8 <= x14;
x8 <= x15;
x8 <= x16;

x9 <= x15;
x9 <= x16;
x9 <= x17;

x10 <= x16;
x10 <= x17;
x10 <= x18;

x11 <= x19;
x11 <= x20;
x11 <= x21;

x12 <= x20;
x12 <= x21;
x12 <= x22;

x13 <= x21;
x13 <= x22;
x13 <= x34;

x14 <= x22;
x14 <= x23;
x14 <= x24;

x15 <= x23;
x15 <= x24;
x15 <= x25;

x16 <= x24;
x16 <= x25;
x16 <= x26;

x17 <= x25;
x17 <= x26;
x17 <= x27;

x18 <= x26;
x18 <= x27;
x18 <= x28;

x19 <= x29;
x19 <= x30;
x19 <= x31;

x20 <= x30;
x20 <= x31;
x20 <= x32;

x21 <= x31;
x21 <= x32;
x21 <= x33;

x22 <= x32;
x22 <= x33;
x22 <= x34;

x23 <= x33;
x23 <= x34;
x23 <= x35;

x24 <= x34;
x24 <= x35;
x24 <= x36;

x25 <= x35;
x25 <= x36;
x25 <= x37;

x26 <= x36;
x26 <= x37;
x26 <= x38;

x27 <= x37;
x27 <= x38;
x27 <= x39; 

x28 <= x38;
x28 <= x39;
x28 <= x40;

bin x1, x2, x3, x4, x5, x6, x7, x8, x9, x10, x11, x12, x13, x14, x15, x16, x17, x18, x19, x20, x21, x22, x23, x24, x25, x26, x27, x28, x29, x30, x31, x32, x33, x34, x35, x36, x37, x38, x39, x40;